Displacements
Node, u, v
1.000000 , 0.356127, 0.000000
2.000000 , 0.341526, 0.019779
3.000000 , 0.301367, 0.026508
4.000000 , 0.245772, 0.010635
5.000000 , 0.188962, -0.031019
6.000000 , 0.145488, -0.093905
7.000000 , 0.124485, -0.166961
8.000000 , 0.134656, -0.251303
9.000000 , 0.178063, -0.298442
10.000000 , 0.221471, -0.251303
11.000000 , 0.231642, -0.166961
12.000000 , 0.210639, -0.093905
13.000000 , 0.167165, -0.031019
14.000000 , 0.110355, 0.010635
15.000000 , 0.054760, 0.026508
16.000000 , 0.014600, 0.019779
17.000000 , 0.000000, 0.000000
18.000000 , 0.014600, -0.019779
19.000000 , 0.054760, -0.026508
20.000000 , 0.110355, -0.010635
21.000000 , 0.167165, 0.031019
22.000000 , 0.210639, 0.093905
23.000000 , 0.231642, 0.166961
24.000000 , 0.221471, 0.251303
25.000000 , 0.178063, 0.298442
26.000000 , 0.134656, 0.251303
27.000000 , 0.124485, 0.166961
28.000000 , 0.145488, 0.093905
29.000000 , 0.188962, 0.031019
30.000000 , 0.245772, -0.010635
31.000000 , 0.301367, -0.026508
32.000000 , 0.341526, -0.019779
33.000000 , 0.357445, 0.000000
34.000000 , 0.345050, 0.008276
35.000000 , 0.310864, 0.005921
36.000000 , 0.263221, -0.014788
37.000000 , 0.213843, -0.056346
38.000000 , 0.174850, -0.114792
39.000000 , 0.155950, -0.183335
40.000000 , 0.159038, -0.250872
41.000000 , 0.178063, -0.282756
42.000000 , 0.197088, -0.250872
43.000000 , 0.200177, -0.183335
44.000000 , 0.181277, -0.114792
45.000000 , 0.142284, -0.056346
46.000000 , 0.092906, -0.014788
47.000000 , 0.045263, 0.005921
48.000000 , 0.011077, 0.008276
49.000000 , -0.001318, 0.000000
50.000000 , 0.011077, -0.008276
51.000000 , 0.045263, -0.005921
52.000000 , 0.092906, 0.014788
53.000000 , 0.142284, 0.056346
54.000000 , 0.181277, 0.114792
55.000000 , 0.200177, 0.183335
56.000000 , 0.197088, 0.250872
57.000000 , 0.178063, 0.282756
58.000000 , 0.159038, 0.250872
59.000000 , 0.155950, 0.183335
60.000000 , 0.174850, 0.114792
61.000000 , 0.213843, 0.056346
62.000000 , 0.263221, 0.014788
63.000000 , 0.310864, -0.005921
64.000000 , 0.345050, -0.008276
65.000000 , 0.359119, 0.000000
66.000000 , 0.348633, -0.001848
67.000000 , 0.319577, -0.012155
68.000000 , 0.278638, -0.037059
69.000000 , 0.235292, -0.078489
70.000000 , 0.199583, -0.133578
71.000000 , 0.178759, -0.195021
72.000000 , 0.173443, -0.248799
73.000000 , 0.178063, -0.271522
74.000000 , 0.182684, -0.248799
75.000000 , 0.177368, -0.195021
76.000000 , 0.156544, -0.133578
77.000000 , 0.120835, -0.078489
78.000000 , 0.077489, -0.037059
79.000000 , 0.036550, -0.012155
80.000000 , 0.007494, -0.001848
81.000000 , -0.002992, 0.000000
82.000000 , 0.007494, 0.001848
83.000000 , 0.036550, 0.012155
84.000000 , 0.077489, 0.037059
85.000000 , 0.120835, 0.078489
86.000000 , 0.156544, 0.133578
87.000000 , 0.177368, 0.195021
88.000000 , 0.182684, 0.248799
89.000000 , 0.178063, 0.271522
90.000000 , 0.173443, 0.248799
91.000000 , 0.178759, 0.195021
92.000000 , 0.199583, 0.133578
93.000000 , 0.235292, 0.078489
94.000000 , 0.278638, 0.037059
95.000000 , 0.319577, 0.012155
96.000000 , 0.348633, 0.001848
97.000000 , 0.360935, 0.000000
98.000000 , 0.352208, -0.011230
99.000000 , 0.327851, -0.028872
100.000000 , 0.292946, -0.057570
101.000000 , 0.254735, -0.098803
102.000000 , 0.220874, -0.150026
103.000000 , 0.196909, -0.203880
104.000000 , 0.183900, -0.247407
105.000000 , 0.178063, -0.264613
106.000000 , 0.172227, -0.247407
107.000000 , 0.159218, -0.203880
108.000000 , 0.135253, -0.150026
109.000000 , 0.101391, -0.098803
110.000000 , 0.063181, -0.057570
111.000000 , 0.028276, -0.028872
112.000000 , 0.003919, -0.011230
113.000000 , -0.004809, 0.000000
114.000000 , 0.003919, 0.011230
115.000000 , 0.028276, 0.028872
116.000000 , 0.063181, 0.057570
117.000000 , 0.101391, 0.098803
118.000000 , 0.135253, 0.150026
119.000000 , 0.159218, 0.203880
120.000000 , 0.172227, 0.247407
121.000000 , 0.178063, 0.264613
122.000000 , 0.183900, 0.247407
123.000000 , 0.196909, 0.203880
124.000000 , 0.220874, 0.150026
125.000000 , 0.254735, 0.098803
126.000000 , 0.292946, 0.057570
127.000000 , 0.327851, 0.028872
128.000000 , 0.352208, 0.011230
129.000000 , 0.362071, 0.000000
130.000000 , 0.355230, -0.021069
131.000000 , 0.335931, -0.046392
132.000000 , 0.307550, -0.078992
133.000000 , 0.274820, -0.119662
134.000000 , 0.242755, -0.166134
135.000000 , 0.215392, -0.212213
136.000000 , 0.194408, -0.247629
137.000000 , 0.178063, -0.261154
138.000000 , 0.161719, -0.247629
139.000000 , 0.140735, -0.212213
140.000000 , 0.113372, -0.166134
141.000000 , 0.081307, -0.119662
142.000000 , 0.048577, -0.078992
143.000000 , 0.020195, -0.046392
144.000000 , 0.000897, -0.021069
145.000000 , -0.005944, 0.000000
146.000000 , 0.000897, 0.021069
147.000000 , 0.020195, 0.046392
148.000000 , 0.048577, 0.078992
149.000000 , 0.081307, 0.119662
150.000000 , 0.113372, 0.166134
151.000000 , 0.140735, 0.212213
152.000000 , 0.161719, 0.247629
153.000000 , 0.178063, 0.261154
154.000000 , 0.194408, 0.247629
155.000000 , 0.215392, 0.212213
156.000000 , 0.242755, 0.166134
157.000000 , 0.274820, 0.119662
158.000000 , 0.307550, 0.078992
159.000000 , 0.335931, 0.046392
160.000000 , 0.355230, 0.021069
161.000000 , 0.359832, 0.000000
162.000000 , 0.355586, -0.033899
163.000000 , 0.343366, -0.069321
164.000000 , 0.324532, -0.107152
165.000000 , 0.300782, -0.147054
166.000000 , 0.273522, -0.186956
167.000000 , 0.243566, -0.222665
168.000000 , 0.211460, -0.248160
169.000000 , 0.178063, -0.257513
170.000000 , 0.144667, -0.248160
171.000000 , 0.112561, -0.222665
172.000000 , 0.082605, -0.186956
173.000000 , 0.055345, -0.147054
174.000000 , 0.031594, -0.107152
175.000000 , 0.012761, -0.069321
176.000000 , 0.000541, -0.033899
177.000000 , -0.003705, 0.000000
178.000000 , 0.000541, 0.033899
179.000000 , 0.012761, 0.069321
180.000000 , 0.031594, 0.107152
181.000000 , 0.055345, 0.147054
182.000000 , 0.082605, 0.186956
183.000000 , 0.112561, 0.222665
184.000000 , 0.144667, 0.248160
185.000000 , 0.178063, 0.257513
186.000000 , 0.211460, 0.248160
187.000000 , 0.243566, 0.222665
188.000000 , 0.273522, 0.186956
189.000000 , 0.300782, 0.147054
190.000000 , 0.324532, 0.107152
191.000000 , 0.343366, 0.069321
192.000000 , 0.355586, 0.033899
Stress
Element, Gauss Node, Global Node, Stress-x, Stress-y, Stress-xy
1 ,1, 1, -5.273346, 556.420604, -143.234246
1 ,2, 2, -27.176610, 586.336624, 2.201115
1 ,3, 34, -34.561506, 365.202541, -133.512634
1 ,4, 33, -57.837629, 396.993647, 21.038370
2 ,1, 2, 69.495558, 391.716372, -229.877849
2 ,2, 3, 14.667960, 470.310631, -114.228311
2 ,3, 35, 35.615827, 226.180765, -196.736193
2 ,4, 34, -22.648272, 309.701180, -73.837936
3 ,1, 3, 139.037990, 154.956170, -207.872147
3 ,2, 4, 78.798424, 253.586545, -137.731746
3 ,3, 36, 101.278161, 34.905329, -166.291744
3 ,4, 35, 37.262881, 139.717689, -91.755060
4 ,1, 4, 123.926384, -63.078454, -74.972607
4 ,2, 5, 88.781728, 23.463648, -43.503270
4 ,3, 37, 93.298091, -132.207341, -42.426564
4 ,4, 36, 55.950628, -40.240926, -8.984782
5 ,1, 5, -35.344185, -182.597987, 110.648415
5 ,2, 6, -30.642453, -131.078711, 127.176502
5 ,3, 38, -41.097319, -208.036404, 123.031583
5 ,4, 37, -36.100890, -153.287987, 140.595622
6 ,1, 6, -322.084968, -164.245272, 249.660531
6 ,2, 7, -308.679234, -74.652988, 269.987185
6 ,3, 39, -326.499083, -193.452035, 270.017641
6 ,4, 38, -312.253100, -98.244259, 291.618336
7 ,1, 7, -817.614240, -253.597180, 419.381027
7 ,2, 8, -797.269507, -535.392131, 471.556386
7 ,3, 40, -694.567853, -178.592209, 334.487631
7 ,4, 39, -672.947946, -478.049591, 389.933253
8 ,1, 8, -1393.428820, -640.589947, 160.184730
8 ,2, 9, -1379.212419, -1011.509359, 452.576181
8 ,3, 41, -990.888804, -548.268183, 44.892571
8 ,4, 40, -975.781343, -942.436196, 355.610625
9 ,1, 9, -1379.212419, -1011.509359, -452.576181
9 ,2, 10, -1393.428820, -640.589947, -160.184730
9 ,3, 42, -975.781343, -942.436196, -355.610625
9 ,4, 41, -990.888804, -548.268183, -44.892571
10 ,1, 10, -797.269507, -535.392131, -471.556386
10 ,2, 11, -817.614240, -253.597180, -419.381027
10 ,3, 43, -672.947946, -478.049591, -389.933253
10 ,4, 42, -694.567853, -178.592209, -334.487631
11 ,1, 11, -308.679234, -74.652988, -269.987185
11 ,2, 12, -322.084968, -164.245272, -249.660531
11 ,3, 44, -312.253100, -98.244259, -291.618336
11 ,4, 43, -326.499083, -193.452035, -270.017641
12 ,1, 12, -30.642453, -131.078711, -127.176502
12 ,2, 13, -35.344185, -182.597987, -110.648415
12 ,3, 45, -36.100890, -153.287987, -140.595622
12 ,4, 44, -41.097319, -208.036404, -123.031583
13 ,1, 13, 88.781728, 23.463648, 43.503270
13 ,2, 14, 123.926384, -63.078454, 74.972607
13 ,3, 46, 55.950628, -40.240926, 8.984782
13 ,4, 45, 93.298091, -132.207341, 42.426564
14 ,1, 14, 78.798424, 253.586545, 137.731746
14 ,2, 15, 139.037990, 154.956170, 207.872147
14 ,3, 47, 37.262881, 139.717689, 91.755060
14 ,4, 46, 101.278161, 34.905329, 166.291744
15 ,1, 15, 14.667960, 470.310631, 114.228311
15 ,2, 16, 69.495558, 391.716372, 229.877849
15 ,3, 48, -22.648272, 309.701180, 73.837936
15 ,4, 47, 35.615827, 226.180765, 196.736193
16 ,1, 16, -27.176610, 586.336624, -2.201115
16 ,2, 17, -5.273346, 556.420604, 143.234246
16 ,3, 49, -57.837629, 396.993647, -21.038370
16 ,4, 48, -34.561506, 365.202541, 133.512634
17 ,1, 17, -5.273346, 556.420604, -143.234246
17 ,2, 18, -27.176610, 586.336624, 2.201115
17 ,3, 50, -34.561506, 365.202541, -133.512634
17 ,4, 49, -57.837629, 396.993647, 21.038370
18 ,1, 18, 69.495558, 391.716372, -229.877849
18 ,2, 19, 14.667960, 470.310631, -114.228311
18 ,3, 51, 35.615827, 226.180765, -196.736193
18 ,4, 50, -22.648272, 309.701180, -73.837936
19 ,1, 19, 139.037990, 154.956170, -207.872147
19 ,2, 20, 78.798424, 253.586545, -137.731746
19 ,3, 52, 101.278161, 34.905329, -166.291744
19 ,4, 51, 37.262881, 139.717689, -91.755060
20 ,1, 20, 123.926384, -63.078454, -74.972607
20 ,2, 21, 88.781728, 23.463648, -43.503270
20 ,3, 53, 93.298091, -132.207341, -42.426564
20 ,4, 52, 55.950628, -40.240926, -8.984782
21 ,1, 21, -35.344185, -182.597987, 110.648415
21 ,2, 22, -30.642453, -131.078711, 127.176502
21 ,3, 54, -41.097319, -208.036404, 123.031583
21 ,4, 53, -36.100890, -153.287987, 140.595622
22 ,1, 22, -322.084968, -164.245272, 249.660531
22 ,2, 23, -308.679234, -74.652988, 269.987185
22 ,3, 55, -326.499083, -193.452035, 270.017641
22 ,4, 54, -312.253100, -98.244259, 291.618336
23 ,1, 23, -817.614240, -253.597180, 419.381027
23 ,2, 24, -797.269507, -535.392131, 471.556386
23 ,3, 56, -694.567853, -178.592209, 334.487631
23 ,4, 55, -672.947946, -478.049591, 389.933253
24 ,1, 24, -1393.428820, -640.589947, 160.184730
24 ,2, 25, -1379.212419, -1011.509359, 452.576181
24 ,3, 57, -990.888804, -548.268183, 44.892571
24 ,4, 56, -975.781343, -942.436196, 355.610625
25 ,1, 25, -1379.212419, -1011.509359, -452.576181
25 ,2, 26, -1393.428820, -640.589947, -160.184730
25 ,3, 58, -975.781343, -942.436196, -355.610625
25 ,4, 57, -990.888804, -548.268183, -44.892571
26 ,1, 26, -797.269507, -535.392131, -471.556386
26 ,2, 27, -817.614240, -253.597180, -419.381027
26 ,3, 59, -672.947946, -478.049591, -389.933253
26 ,4, 58, -694.567853, -178.592209, -334.487631
27 ,1, 27, -308.679234, -74.652988, -269.987185
27 ,2, 28, -322.084968, -164.245272, -249.660531
27 ,3, 60, -312.253100, -98.244259, -291.618336
27 ,4, 59, -326.499083, -193.452035, -270.017641
28 ,1, 28, -30.642453, -131.078711, -127.176502
28 ,2, 29, -35.344185, -182.597987, -110.648415
28 ,3, 61, -36.100890, -153.287987, -140.595622
28 ,4, 60, -41.097319, -208.036404, -123.031583
29 ,1, 29, 88.781728, 23.463648, 43.503270
29 ,2, 30, 123.926384, -63.078454, 74.972607
29 ,3, 62, 55.950628, -40.240926, 8.984782
29 ,4, 61, 93.298091, -132.207341, 42.426564
30 ,1, 30, 78.798424, 253.586545, 137.731746
30 ,2, 31, 139.037990, 154.956170, 207.872147
30 ,3, 63, 37.262881, 139.717689, 91.755060
30 ,4, 62, 101.278161, 34.905329, 166.291744
31 ,1, 31, 14.667960, 470.310631, 114.228311
31 ,2, 32, 69.495558, 391.716372, 229.877849
31 ,3, 64, -22.648272, 309.701180, 73.837936
31 ,4, 63, 35.615827, 226.180765, 196.736193
32 ,1, 32, -27.176610, 586.336624, -2.201115
32 ,2, 1, -5.273346, 556.420604, 143.234246
32 ,3, 33, -57.837629, 396.993647, -21.038370
32 ,4, 64, -34.561506, 365.202541, 133.512634
33 ,1, 33, -75.047676, 215.243141, -135.082131
33 ,2, 34, -89.391849, 245.249265, 6.068752
33 ,3, 66, -106.692953, 7.507912, -126.334787
33 ,4, 65, -122.045686, 39.623810, 24.740621
34 ,1, 34, 13.437724, 71.796986, -212.896326
34 ,2, 35, -20.008274, 151.773349, -97.070056
34 ,3, 67, -20.686397, -109.531891, -181.907055
34 ,4, 66, -56.484032, -23.932272, -57.936870
35 ,1, 35, 120.577996, -126.394272, -185.105867
35 ,2, 36, 91.979341, -21.517092, -106.609324
35 ,3, 68, 87.220815, -261.503600, -146.605293
35 ,4, 67, 56.611347, -149.252351, -62.589543
36 ,1, 36, 167.053060, -294.344615, -44.845281
36 ,2, 37, 167.242908, -192.810197, 3.564319
36 ,3, 69, 147.505470, -377.312735, -15.219425
36 ,4, 68, 147.708667, -268.639283, 36.593924
37 ,1, 37, 83.086551, -352.585901, 158.609588
37 ,2, 38, 120.610801, -260.521073, 202.015059
37 ,3, 70, 93.313639, -397.946389, 173.943272
37 ,4, 69, 133.476275, -299.408348, 220.400645
38 ,1, 38, -164.910556, -323.352220, 366.798833
38 ,2, 39, -93.250735, -296.387811, 425.566832
38 ,3, 71, -88.244900, -317.780944, 350.916512
38 ,4, 70, -11.546572, -288.920629, 413.816575
39 ,1, 39, -461.900397, -338.668738, 466.336690
39 ,2, 40, -409.306461, -544.140114, 557.753662
39 ,3, 72, -283.691049, -264.422522, 383.349464
39 ,4, 71, -227.399156, -484.340891, 481.194097
40 ,1, 40, -693.774529, -505.861046, 179.496890
40 ,2, 41, -680.424759, -703.141045, 360.526236
40 ,3, 73, -416.626827, -445.148359, 108.022595
40 ,4, 72, -402.338415, -656.299404, 301.780379
41 ,1, 41, -680.424759, -703.141045, -360.526236
41 ,2, 42, -693.774529, -505.861046, -179.496890
41 ,3, 74, -402.338415, -656.299404, -301.780379
41 ,4, 73, -416.626827, -445.148359, -108.022595
42 ,1, 42, -409.306461, -544.140114, -557.753662
42 ,2, 43, -461.900397, -338.668738, -466.336690
42 ,3, 75, -227.399156, -484.340891, -481.194097
42 ,4, 74, -283.691049, -264.422522, -383.349464
43 ,1, 43, -93.250735, -296.387811, -425.566832
43 ,2, 44, -164.910556, -323.352220, -366.798833
43 ,3, 76, -11.546572, -288.920629, -413.816575
43 ,4, 75, -88.244900, -317.780944, -350.916512
44 ,1, 44, 120.610801, -260.521073, -202.015059
44 ,2, 45, 83.086551, -352.585901, -158.609588
44 ,3, 77, 133.476275, -299.408348, -220.400645
44 ,4, 76, 93.313639, -397.946389, -173.943272
45 ,1, 45, 167.242908, -192.810197, -3.564319
45 ,2, 46, 167.053060, -294.344615, 44.845281
45 ,3, 78, 147.708667, -268.639283, -36.593924
45 ,4, 77, 147.505470, -377.312735, 15.219425
46 ,1, 46, 91.979341, -21.517092, 106.609324
46 ,2, 47, 120.577996, -126.394272, 185.105867
46 ,3, 79, 56.611347, -149.252351, 62.589543
46 ,4, 78, 87.220815, -261.503600, 146.605293
47 ,1, 47, -20.008274, 151.773349, 97.070056
47 ,2, 48, 13.437724, 71.796986, 212.896326
47 ,3, 80, -56.484032, -23.932272, 57.936870
47 ,4, 79, -20.686397, -109.531891, 181.907055
48 ,1, 48, -89.391849, 245.249265, -6.068752
48 ,2, 49, -75.047676, 215.243141, 135.082131
48 ,3, 81, -122.045686, 39.623810, -24.740621
48 ,4, 80, -106.692953, 7.507912, 126.334787
49 ,1, 49, -75.047676, 215.243141, -135.082131
49 ,2, 50, -89.391849, 245.249265, 6.068752
49 ,3, 82, -106.692953, 7.507912, -126.334787
49 ,4, 81, -122.045686, 39.623810, 24.740621
50 ,1, 50, 13.437724, 71.796986, -212.896326
50 ,2, 51, -20.008274, 151.773349, -97.070056
50 ,3, 83, -20.686397, -109.531891, -181.907055
50 ,4, 82, -56.484032, -23.932272, -57.936870
51 ,1, 51, 120.577996, -126.394272, -185.105867
51 ,2, 52, 91.979341, -21.517092, -106.609324
51 ,3, 84, 87.220815, -261.503600, -146.605293
51 ,4, 83, 56.611347, -149.252351, -62.589543
52 ,1, 52, 167.053060, -294.344615, -44.845281
52 ,2, 53, 167.242908, -192.810197, 3.564319
52 ,3, 85, 147.505470, -377.312735, -15.219425
52 ,4, 84, 147.708667, -268.639283, 36.593924
53 ,1, 53, 83.086551, -352.585901, 158.609588
53 ,2, 54, 120.610801, -260.521073, 202.015059
53 ,3, 86, 93.313639, -397.946389, 173.943272
53 ,4, 85, 133.476275, -299.408348, 220.400645
54 ,1, 54, -164.910556, -323.352220, 366.798833
54 ,2, 55, -93.250735, -296.387811, 425.566832
54 ,3, 87, -88.244900, -317.780944, 350.916512
54 ,4, 86, -11.546572, -288.920629, 413.816575
55 ,1, 55, -461.900397, -338.668738, 466.336690
55 ,2, 56, -409.306461, -544.140114, 557.753662
55 ,3, 88, -283.691049, -264.422522, 383.349464
55 ,4, 87, -227.399156, -484.340891, 481.194097
56 ,1, 56, -693.774529, -505.861046, 179.496890
56 ,2, 57, -680.424759, -703.141045, 360.526236
56 ,3, 89, -416.626827, -445.148359, 108.022595
56 ,4, 88, -402.338415, -656.299404, 301.780379
57 ,1, 57, -680.424759, -703.141045, -360.526236
57 ,2, 58, -693.774529, -505.861046, -179.496890
57 ,3, 90, -402.338415, -656.299404, -301.780379
57 ,4, 89, -416.626827, -445.148359, -108.022595
58 ,1, 58, -409.306461, -544.140114, -557.753662
58 ,2, 59, -461.900397, -338.668738, -466.336690
58 ,3, 91, -227.399156, -484.340891, -481.194097
58 ,4, 90, -283.691049, -264.422522, -383.349464
59 ,1, 59, -93.250735, -296.387811, -425.566832
59 ,2, 60, -164.910556, -323.352220, -366.798833
59 ,3, 92, -11.546572, -288.920629, -413.816575
59 ,4, 91, -88.244900, -317.780944, -350.916512
60 ,1, 60, 120.610801, -260.521073, -202.015059
60 ,2, 61, 83.086551, -352.585901, -158.609588
60 ,3, 93, 133.476275, -299.408348, -220.400645
60 ,4, 92, 93.313639, -397.946389, -173.943272
61 ,1, 61, 167.242908, -192.810197, -3.564319
61 ,2, 62, 167.053060, -294.344615, 44.845281
61 ,3, 94, 147.708667, -268.639283, -36.593924
61 ,4, 93, 147.505470, -377.312735, 15.219425
62 ,1, 62, 91.979341, -21.517092, 106.609324
62 ,2, 63, 120.577996, -126.394272, 185.105867
62 ,3, 95, 56.611347, -149.252351, 62.589543
62 ,4, 94, 87.220815, -261.503600, 146.605293
63 ,1, 63, -20.008274, 151.773349, 97.070056
63 ,2, 64, 13.437724, 71.796986, 212.896326
63 ,3, 96, -56.484032, -23.932272, 57.936870
63 ,4, 95, -20.686397, -109.531891, 181.907055
64 ,1, 64, -89.391849, 245.249265, -6.068752
64 ,2, 33, -75.047676, 215.243141, 135.082131
64 ,3, 65, -122.045686, 39.623810, -24.740621
64 ,4, 96, -106.692953, 7.507912, 126.334787
65 ,1, 65, -138.795003, -159.745027, -124.136223
65 ,2, 66, -149.930375, -127.728599, 23.888737
65 ,3, 98, -176.427801, -407.516673, -114.872909
65 ,4, 97, -188.454689, -372.936958, 45.003168
66 ,1, 66, -43.775706, -268.829812, -179.485858
66 ,2, 67, -67.355622, -182.864770, -56.014476
66 ,3, 99, -82.673304, -485.953867, -145.870115
66 ,4, 98, -108.141066, -393.106325, -12.513416
67 ,1, 67, 87.834925, -406.883967, -143.811122
67 ,2, 68, 76.106651, -292.244488, -55.851824
67 ,3, 100, 53.645629, -569.973983, -102.852397
67 ,4, 99, 40.978370, -446.156282, -7.850937
68 ,1, 68, 187.405019, -504.902054, -7.898578
68 ,2, 69, 212.747407, -388.079882, 54.768030
68 ,3, 101, 176.134848, -608.065561, 21.792522
68 ,4, 100, 203.506189, -481.890417, 89.476320
69 ,1, 69, 187.712357, -509.877982, 196.337955
69 ,2, 70, 261.234305, -415.382433, 257.561905
69 ,3, 102, 229.449279, -555.180789, 201.269546
69 ,4, 101, 308.857512, -453.119774, 267.395184
70 ,1, 70, 71.888092, -426.316886, 389.358643
70 ,2, 71, 171.342778, -408.543644, 468.752108
70 ,3, 103, 198.151042, -408.566033, 357.429652
70 ,4, 102, 305.568230, -389.369836, 443.179486
71 ,1, 71, -81.455925, -325.210149, 424.809507
71 ,2, 72, -11.239925, -435.399852, 533.217114
71 ,3, 104, 125.630046, -263.534665, 356.969401
71 ,4, 103, 201.467651, -382.546334, 474.056296
72 ,1, 72, -189.413720, -312.862070, 149.143915
72 ,2, 73, -168.609474, -404.981359, 297.902251
72 ,3, 105, 63.926995, -264.444935, 103.441383
72 ,4, 104, 86.396863, -363.939442, 264.109550
73 ,1, 73, -168.609474, -404.981359, -297.902251
73 ,2, 74, -189.413720, -312.862070, -149.143915
73 ,3, 106, 86.396863, -363.939442, -264.109550
73 ,4, 105, 63.926995, -264.444935, -103.441383
74 ,1, 74, -11.239925, -435.399852, -533.217114
74 ,2, 75, -81.455925, -325.210149, -424.809507
74 ,3, 107, 201.467651, -382.546334, -474.056296
74 ,4, 106, 125.630046, -263.534665, -356.969401
75 ,1, 75, 171.342778, -408.543644, -468.752108
75 ,2, 76, 71.888092, -426.316886, -389.358643
75 ,3, 108, 305.568230, -389.369836, -443.179486
75 ,4, 107, 198.151042, -408.566033, -357.429652
76 ,1, 76, 261.234305, -415.382433, -257.561905
76 ,2, 77, 187.712357, -509.877982, -196.337955
76 ,3, 109, 308.857512, -453.119774, -267.395184
76 ,4, 108, 229.449279, -555.180789, -201.269546
77 ,1, 77, 212.747407, -388.079882, -54.768030
77 ,2, 78, 187.405019, -504.902054, 7.898578
77 ,3, 110, 203.506189, -481.890417, -89.476320
77 ,4, 109, 176.134848, -608.065561, -21.792522
78 ,1, 78, 76.106651, -292.244488, 55.851824
78 ,2, 79, 87.834925, -406.883967, 143.811122
78 ,3, 111, 40.978370, -446.156282, 7.850937
78 ,4, 110, 53.645629, -569.973983, 102.852397
79 ,1, 79, -67.355622, -182.864770, 56.014476
79 ,2, 80, -43.775706, -268.829812, 179.485858
79 ,3, 112, -108.141066, -393.106325, 12.513416
79 ,4, 111, -82.673304, -485.953867, 145.870115
80 ,1, 80, -149.930375, -127.728599, -23.888737
80 ,2, 81, -138.795003, -159.745027, 124.136223
80 ,3, 113, -188.454689, -372.936958, -45.003168
80 ,4, 112, -176.427801, -407.516673, 114.872909
81 ,1, 81, -138.795003, -159.745027, -124.136223
81 ,2, 82, -149.930375, -127.728599, 23.888737
81 ,3, 114, -176.427801, -407.516673, -114.872909
81 ,4, 113, -188.454689, -372.936958, 45.003168
82 ,1, 82, -43.775706, -268.829812, -179.485858
82 ,2, 83, -67.355622, -182.864770, -56.014476
82 ,3, 115, -82.673304, -485.953867, -145.870115
82 ,4, 114, -108.141066, -393.106325, -12.513416
83 ,1, 83, 87.834925, -406.883967, -143.811122
83 ,2, 84, 76.106651, -292.244488, -55.851824
83 ,3, 116, 53.645629, -569.973983, -102.852397
83 ,4, 115, 40.978370, -446.156282, -7.850937
84 ,1, 84, 187.405019, -504.902054, -7.898578
84 ,2, 85, 212.747407, -388.079882, 54.768030
84 ,3, 117, 176.134848, -608.065561, 21.792522
84 ,4, 116, 203.506189, -481.890417, 89.476320
85 ,1, 85, 187.712357, -509.877982, 196.337955
85 ,2, 86, 261.234305, -415.382433, 257.561905
85 ,3, 118, 229.449279, -555.180789, 201.269546
85 ,4, 117, 308.857512, -453.119774, 267.395184
86 ,1, 86, 71.888092, -426.316886, 389.358643
86 ,2, 87, 171.342778, -408.543644, 468.752108
86 ,3, 119, 198.151042, -408.566033, 357.429652
86 ,4, 118, 305.568230, -389.369836, 443.179486
87 ,1, 87, -81.455925, -325.210149, 424.809507
87 ,2, 88, -11.239925, -435.399852, 533.217114
87 ,3, 120, 125.630046, -263.534665, 356.969401
87 ,4, 119, 201.467651, -382.546334, 474.056296
88 ,1, 88, -189.413720, -312.862070, 149.143915
88 ,2, 89, -168.609474, -404.981359, 297.902251
88 ,3, 121, 63.926995, -264.444935, 103.441383
88 ,4, 120, 86.396863, -363.939442, 264.109550
89 ,1, 89, -168.609474, -404.981359, -297.902251
89 ,2, 90, -189.413720, -312.862070, -149.143915
89 ,3, 122, 86.396863, -363.939442, -264.109550
89 ,4, 121, 63.926995, -264.444935, -103.441383
90 ,1, 90, -11.239925, -435.399852, -533.217114
90 ,2, 91, -81.455925, -325.210149, -424.809507
90 ,3, 123, 201.467651, -382.546334, -474.056296
90 ,4, 122, 125.630046, -263.534665, -356.969401
91 ,1, 91, 171.342778, -408.543644, -468.752108
91 ,2, 92, 71.888092, -426.316886, -389.358643
91 ,3, 124, 305.568230, -389.369836, -443.179486
91 ,4, 123, 198.151042, -408.566033, -357.429652
92 ,1, 92, 261.234305, -415.382433, -257.561905
92 ,2, 93, 187.712357, -509.877982, -196.337955
92 ,3, 125, 308.857512, -453.119774, -267.395184
92 ,4, 124, 229.449279, -555.180789, -201.269546
93 ,1, 93, 212.747407, -388.079882, -54.768030
93 ,2, 94, 187.405019, -504.902054, 7.898578
93 ,3, 126, 203.506189, -481.890417, -89.476320
93 ,4, 125, 176.134848, -608.065561, -21.792522
94 ,1, 94, 76.106651, -292.244488, 55.851824
94 ,2, 95, 87.834925, -406.883967, 143.811122
94 ,3, 127, 40.978370, -446.156282, 7.850937
94 ,4, 126, 53.645629, -569.973983, 102.852397
95 ,1, 95, -67.355622, -182.864770, 56.014476
95 ,2, 96, -43.775706, -268.829812, 179.485858
95 ,3, 128, -108.141066, -393.106325, 12.513416
95 ,4, 127, -82.673304, -485.953867, 145.870115
96 ,1, 96, -149.930375, -127.728599, -23.888737
96 ,2, 65, -138.795003, -159.745027, 124.136223
96 ,3, 97, -188.454689, -372.936958, -45.003168
96 ,4, 128, -176.427801, -407.516673, 114.872909
97 ,1, 97, -168.510458, -613.484013, -102.276757
97 ,2, 98, -185.716099, -575.804090, 74.472449
97 ,3, 130, -220.861082, -957.303678, -88.061993
97 ,4, 129, -239.666009, -916.121359, 105.116269
98 ,1, 98, -87.078342, -657.978819, -98.893270
98 ,2, 99, -126.253484, -557.574324, 46.284330
98 ,3, 131, -142.955528, -957.653602, -48.600489
98 ,4, 130, -185.772048, -847.916386, 110.071546
99 ,1, 99, 31.246722, -683.466058, -46.216601
99 ,2, 100, 2.257841, -552.422288, 52.609171
99 ,3, 132, -20.915138, -904.608347, 14.588647
99 ,4, 131, -52.598571, -761.383898, 122.600396
100 ,1, 100, 152.433259, -662.088224, 57.763725
100 ,2, 101, 170.420556, -538.107410, 121.799790
100 ,3, 133, 132.644044, -791.478336, 98.102452
100 ,4, 132, 152.303282, -655.973353, 168.090748
101 ,1, 101, 243.622527, -574.001888, 195.732092
101 ,2, 102, 325.374132, -490.521213, 257.820546
101 ,3, 134, 303.025126, -616.170822, 193.553088
101 ,4, 133, 392.375643, -524.930515, 261.412739
102 ,1, 102, 287.810149, -415.381347, 312.311639
102 ,2, 103, 405.506771, -400.290312, 405.611506
102 ,3, 135, 463.081214, -387.851672, 266.045124
102 ,4, 134, 591.717881, -371.357906, 368.017328
103 ,1, 103, 295.529887, -223.576127, 300.534300
103 ,2, 104, 390.356178, -274.385696, 438.793950
103 ,3, 136, 575.976873, -162.362937, 234.593690
103 ,4, 135, 679.617384, -217.895318, 385.704744
104 ,1, 104, 294.970645, -103.623784, 76.644257
104 ,2, 105, 329.085526, -142.201472, 250.915345
104 ,3, 137, 632.661336, -47.422073, 38.838678
104 ,4, 136, 669.947237, -89.585604, 229.308476
105 ,1, 105, 329.085526, -142.201472, -250.915345
105 ,2, 106, 294.970645, -103.623784, -76.644257
105 ,3, 138, 669.947237, -89.585604, -229.308476
105 ,4, 137, 632.661336, -47.422073, -38.838678
106 ,1, 106, 390.356178, -274.385696, -438.793950
106 ,2, 107, 295.529887, -223.576127, -300.534300
106 ,3, 139, 679.617384, -217.895318, -385.704744
106 ,4, 138, 575.976873, -162.362937, -234.593690
107 ,1, 107, 405.506771, -400.290312, -405.611506
107 ,2, 108, 287.810149, -415.381347, -312.311639
107 ,3, 140, 591.717881, -371.357906, -368.017328
107 ,4, 139, 463.081214, -387.851672, -266.045124
108 ,1, 108, 325.374132, -490.521213, -257.820546
108 ,2, 109, 243.622527, -574.001888, -195.732092
108 ,3, 141, 392.375643, -524.930515, -261.412739
108 ,4, 140, 303.025126, -616.170822, -193.553088
109 ,1, 109, 170.420556, -538.107410, -121.799790
109 ,2, 110, 152.433259, -662.088224, -57.763725
109 ,3, 142, 152.303282, -655.973353, -168.090748
109 ,4, 141, 132.644044, -791.478336, -98.102452
110 ,1, 110, 2.257841, -552.422288, -52.609171
110 ,2, 111, 31.246722, -683.466058, 46.216601
110 ,3, 143, -52.598571, -761.383898, -122.600396
110 ,4, 142, -20.915138, -904.608347, -14.588647
111 ,1, 111, -126.253484, -557.574324, -46.284330
111 ,2, 112, -87.078342, -657.978819, 98.893270
111 ,3, 144, -185.772048, -847.916386, -110.071546
111 ,4, 143, -142.955528, -957.653602, 48.600489
112 ,1, 112, -185.716099, -575.804090, -74.472449
112 ,2, 113, -168.510458, -613.484013, 102.276757
112 ,3, 145, -239.666009, -916.121359, -105.116269
112 ,4, 144, -220.861082, -957.303678, 88.061993
113 ,1, 113, -168.510458, -613.484013, -102.276757
113 ,2, 114, -185.716099, -575.804090, 74.472449
113 ,3, 146, -220.861082, -957.303678, -88.061993
113 ,4, 145, -239.666009, -916.121359, 105.116269
114 ,1, 114, -87.078342, -657.978819, -98.893270
114 ,2, 115, -126.253484, -557.574324, 46.284330
114 ,3, 147, -142.955528, -957.653602, -48.600489
114 ,4, 146, -185.772048, -847.916386, 110.071546
115 ,1, 115, 31.246722, -683.466058, -46.216601
115 ,2, 116, 2.257841, -552.422288, 52.609171
115 ,3, 148, -20.915138, -904.608347, 14.588647
115 ,4, 147, -52.598571, -761.383898, 122.600396
116 ,1, 116, 152.433259, -662.088224, 57.763725
116 ,2, 117, 170.420556, -538.107410, 121.799790
116 ,3, 149, 132.644044, -791.478336, 98.102452
116 ,4, 148, 152.303282, -655.973353, 168.090748
117 ,1, 117, 243.622527, -574.001888, 195.732092
117 ,2, 118, 325.374132, -490.521213, 257.820546
117 ,3, 150, 303.025126, -616.170822, 193.553088
117 ,4, 149, 392.375643, -524.930515, 261.412739
118 ,1, 118, 287.810149, -415.381347, 312.311639
118 ,2, 119, 405.506771, -400.290312, 405.611506
118 ,3, 151, 463.081214, -387.851672, 266.045124
118 ,4, 150, 591.717881, -371.357906, 368.017328
119 ,1, 119, 295.529887, -223.576127, 300.534300
119 ,2, 120, 390.356178, -274.385696, 438.793950
119 ,3, 152, 575.976873, -162.362937, 234.593690
119 ,4, 151, 679.617384, -217.895318, 385.704744
120 ,1, 120, 294.970645, -103.623784, 76.644257
120 ,2, 121, 329.085526, -142.201472, 250.915345
120 ,3, 153, 632.661336, -47.422073, 38.838678
120 ,4, 152, 669.947237, -89.585604, 229.308476
121 ,1, 121, 329.085526, -142.201472, -250.915345
121 ,2, 122, 294.970645, -103.623784, -76.644257
121 ,3, 154, 669.947237, -89.585604, -229.308476
121 ,4, 153, 632.661336, -47.422073, -38.838678
122 ,1, 122, 390.356178, -274.385696, -438.793950
122 ,2, 123, 295.529887, -223.576127, -300.534300
122 ,3, 155, 679.617384, -217.895318, -385.704744
122 ,4, 154, 575.976873, -162.362937, -234.593690
123 ,1, 123, 405.506771, -400.290312, -405.611506
123 ,2, 124, 287.810149, -415.381347, -312.311639
123 ,3, 156, 591.717881, -371.357906, -368.017328
123 ,4, 155, 463.081214, -387.851672, -266.045124
124 ,1, 124, 325.374132, -490.521213, -257.820546
124 ,2, 125, 243.622527, -574.001888, -195.732092
124 ,3, 157, 392.375643, -524.930515, -261.412739
124 ,4, 156, 303.025126, -616.170822, -193.553088
125 ,1, 125, 170.420556, -538.107410, -121.799790
125 ,2, 126, 152.433259, -662.088224, -57.763725
125 ,3, 158, 152.303282, -655.973353, -168.090748
125 ,4, 157, 132.644044, -791.478336, -98.102452
126 ,1, 126, 2.257841, -552.422288, -52.609171
126 ,2, 127, 31.246722, -683.466058, 46.216601
126 ,3, 159, -52.598571, -761.383898, -122.600396
126 ,4, 158, -20.915138, -904.608347, -14.588647
127 ,1, 127, -126.253484, -557.574324, -46.284330
127 ,2, 128, -87.078342, -657.978819, 98.893270
127 ,3, 160, -185.772048, -847.916386, -110.071546
127 ,4, 159, -142.955528, -957.653602, 48.600489
128 ,1, 128, -185.716099, -575.804090, -74.472449
128 ,2, 97, -168.510458, -613.484013, 102.276757
128 ,3, 129, -239.666009, -916.121359, -105.116269
128 ,4, 160, -220.861082, -957.303678, 88.061993
129 ,1, 129, -72.754686, -1253.213027, -47.047207
129 ,2, 130, -117.335689, -1202.113036, 205.812318
129 ,3, 162, -163.119618, -1841.521693, -14.450486
129 ,4, 161, -212.639644, -1784.760456, 266.422743
130 ,1, 130, -58.843393, -1160.167809, 111.748734
130 ,2, 131, -172.227199, -1027.193975, 309.130150
130 ,3, 163, -166.777793, -1666.305068, 220.809037
130 ,4, 162, -292.723120, -1518.599379, 440.057869
131 ,1, 131, -57.123063, -944.961097, 214.479734
131 ,2, 132, -186.121881, -782.946788, 326.378583
131 ,3, 164, -182.358713, -1304.328444, 350.025698
131 ,4, 163, -325.649002, -1124.364955, 474.321554
132 ,1, 132, -17.041762, -664.610436, 229.688543
132 ,2, 133, -96.488250, -538.948146, 267.502244
132 ,3, 165, -118.093144, -850.695617, 327.496726
132 ,4, 164, -206.341319, -711.111502, 369.499717
133 ,1, 133, 119.944022, -387.132038, 165.361246
133 ,2, 134, 137.609489, -351.702444, 183.601001
133 ,3, 166, 129.942179, -413.654230, 173.003294
133 ,4, 165, 149.564760, -374.299475, 193.263787
134 ,1, 134, 378.693659, -162.841561, 59.717612
134 ,2, 135, 490.010592, -231.738567, 138.779647
134 ,3, 167, 606.179247, -79.408983, -32.439174
134 ,4, 166, 729.828718, -155.938924, 55.381955
135 ,1, 135, 705.412632, -19.387548, -48.768793
135 ,2, 136, 840.761549, -137.830147, 152.390209
135 ,3, 168, 1207.227652, 104.569944, -183.526604
135 ,4, 167, 1357.571553, -26.994628, 39.918326
136 ,1, 136, 967.414144, 20.710528, -134.992894
136 ,2, 137, 1028.394649, -38.989734, 170.783898
136 ,3, 169, 1672.680102, 136.919689, -210.711308
136 ,4, 168, 1740.416491, 70.605377, 128.941767
137 ,1, 137, 1028.394649, -38.989734, -170.783898
137 ,2, 138, 967.414144, 20.710528, 134.992894
137 ,3, 170, 1740.416491, 70.605377, -128.941767
137 ,4, 169, 1672.680102, 136.919689, 210.711308
138 ,1, 138, 840.761549, -137.830147, -152.390209
138 ,2, 139, 705.412632, -19.387548, 48.768793
138 ,3, 171, 1357.571553, -26.994628, -39.918326
138 ,4, 170, 1207.227652, 104.569944, 183.526604
139 ,1, 139, 490.010592, -231.738567, -138.779647
139 ,2, 140, 378.693659, -162.841561, -59.717612
139 ,3, 172, 729.828718, -155.938924, -55.381955
139 ,4, 171, 606.179247, -79.408983, 32.439174
140 ,1, 140, 137.609489, -351.702444, -183.601001
140 ,2, 141, 119.944022, -387.132038, -165.361246
140 ,3, 173, 149.564760, -374.299475, -193.263787
140 ,4, 172, 129.942179, -413.654230, -173.003294
141 ,1, 141, -96.488250, -538.948146, -267.502244
141 ,2, 142, -17.041762, -664.610436, -229.688543
141 ,3, 174, -206.341319, -711.111502, -369.499717
141 ,4, 173, -118.093144, -850.695617, -327.496726
142 ,1, 142, -186.121881, -782.946788, -326.378583
142 ,2, 143, -57.123063, -944.961097, -214.479734
142 ,3, 175, -325.649002, -1124.364955, -474.321554
142 ,4, 174, -182.358713, -1304.328444, -350.025698
143 ,1, 143, -172.227199, -1027.193975, -309.130150
143 ,2, 144, -58.843393, -1160.167809, -111.748734
143 ,3, 176, -292.723120, -1518.599379, -440.057869
143 ,4, 175, -166.777793, -1666.305068, -220.809037
144 ,1, 144, -117.335689, -1202.113036, -205.812318
144 ,2, 145, -72.754686, -1253.213027, 47.047207
144 ,3, 177, -212.639644, -1784.760456, -266.422743
144 ,4, 176, -163.119618, -1841.521693, 14.450486
145 ,1, 145, -72.754686, -1253.213027, -47.047207
145 ,2, 146, -117.335689, -1202.113036, 205.812318
145 ,3, 178, -163.119618, -1841.521693, -14.450486
145 ,4, 177, -212.639644, -1784.760456, 266.422743
146 ,1, 146, -58.843393, -1160.167809, 111.748734
146 ,2, 147, -172.227199, -1027.193975, 309.130150
146 ,3, 179, -166.777793, -1666.305068, 220.809037
146 ,4, 178, -292.723120, -1518.599379, 440.057869
147 ,1, 147, -57.123063, -944.961097, 214.479734
147 ,2, 148, -186.121881, -782.946788, 326.378583
147 ,3, 180, -182.358713, -1304.328444, 350.025698
147 ,4, 179, -325.649002, -1124.364955, 474.321554
148 ,1, 148, -17.041762, -664.610436, 229.688543
148 ,2, 149, -96.488250, -538.948146, 267.502244
148 ,3, 181, -118.093144, -850.695617, 327.496726
148 ,4, 180, -206.341319, -711.111502, 369.499717
149 ,1, 149, 119.944022, -387.132038, 165.361246
149 ,2, 150, 137.609489, -351.702444, 183.601001
149 ,3, 182, 129.942179, -413.654230, 173.003294
149 ,4, 181, 149.564760, -374.299475, 193.263787
150 ,1, 150, 378.693659, -162.841561, 59.717612
150 ,2, 151, 490.010592, -231.738567, 138.779647
150 ,3, 183, 606.179247, -79.408983, -32.439174
150 ,4, 182, 729.828718, -155.938924, 55.381955
151 ,1, 151, 705.412632, -19.387548, -48.768793
151 ,2, 152, 840.761549, -137.830147, 152.390209
151 ,3, 184, 1207.227652, 104.569944, -183.526604
151 ,4, 183, 1357.571553, -26.994628, 39.918326
152 ,1, 152, 967.414144, 20.710528, -134.992894
152 ,2, 153, 1028.394649, -38.989734, 170.783898
152 ,3, 185, 1672.680102, 136.919689, -210.711308
152 ,4, 184, 1740.416491, 70.605377, 128.941767
153 ,1, 153, 1028.394649, -38.989734, -170.783898
153 ,2, 154, 967.414144, 20.710528, 134.992894
153 ,3, 186, 1740.416491, 70.605377, -128.941767
153 ,4, 185, 1672.680102, 136.919689, 210.711308
154 ,1, 154, 840.761549, -137.830147, -152.390209
154 ,2, 155, 705.412632, -19.387548, 48.768793
154 ,3, 187, 1357.571553, -26.994628, -39.918326
154 ,4, 186, 1207.227652, 104.569944, 183.526604
155 ,1, 155, 490.010592, -231.738567, -138.779647
155 ,2, 156, 378.693659, -162.841561, -59.717612
155 ,3, 188, 729.828718, -155.938924, -55.381955
155 ,4, 187, 606.179247, -79.408983, 32.439174
156 ,1, 156, 137.609489, -351.702444, -183.601001
156 ,2, 157, 119.944022, -387.132038, -165.361246
156 ,3, 189, 149.564760, -374.299475, -193.263787
156 ,4, 188, 129.942179, -413.654230, -173.003294
157 ,1, 157, -96.488250, -538.948146, -267.502244
157 ,2, 158, -17.041762, -664.610436, -229.688543
157 ,3, 190, -206.341319, -711.111502, -369.499717
157 ,4, 189, -118.093144, -850.695617, -327.496726
158 ,1, 158, -186.121881, -782.946788, -326.378583
158 ,2, 159, -57.123063, -944.961097, -214.479734
158 ,3, 191, -325.649002, -1124.364955, -474.321554
158 ,4, 190, -182.358713, -1304.328444, -350.025698
159 ,1, 159, -172.227199, -1027.193975, -309.130150
159 ,2, 160, -58.843393, -1160.167809, -111.748734
159 ,3, 192, -292.723120, -1518.599379, -440.057869
159 ,4, 191, -166.777793, -1666.305068, -220.809037
160 ,1, 160, -117.335689, -1202.113036, -205.812318
160 ,2, 129, -72.754686, -1253.213027, 47.047207
160 ,3, 161, -212.639644, -1784.760456, -266.422743
160 ,4, 192, -163.119618, -1841.521693, 14.450486