Displacements
Node, u, v
1.000000 , 0.270854, 0.000000
2.000000 , 0.248735, 0.030123
3.000000 , 0.187861, 0.040516
4.000000 , 0.103488, 0.016697
5.000000 , 0.017112, -0.046229
6.000000 , -0.049183, -0.141389
7.000000 , -0.080726, -0.251945
8.000000 , -0.070233, -0.371679
9.000000 , 0.000000, -0.476508
10.000000 , 0.272866, 0.000000
11.000000 , 0.254089, 0.012702
12.000000 , 0.202274, 0.009324
13.000000 , 0.129977, -0.021848
14.000000 , 0.054908, -0.084631
15.000000 , -0.004562, -0.173164
16.000000 , -0.034073, -0.275373
17.000000 , -0.027499, -0.379463
18.000000 , 0.000000, -0.440641
19.000000 , 0.275421, 0.000000
20.000000 , 0.259541, -0.002646
21.000000 , 0.215520, -0.018093
22.000000 , 0.153428, -0.055641
23.000000 , 0.087554, -0.118275
24.000000 , 0.033075, -0.201477
25.000000 , 0.001639, -0.294591
26.000000 , -0.005709, -0.378756
27.000000 , 0.000000, -0.417852
28.000000 , 0.278191, 0.000000
29.000000 , 0.264983, -0.016881
30.000000 , 0.228112, -0.043467
31.000000 , 0.175227, -0.086801
32.000000 , 0.117234, -0.149148
33.000000 , 0.065782, -0.226799
34.000000 , 0.029505, -0.309138
35.000000 , 0.009705, -0.377100
36.000000 , 0.000000, -0.404931
37.000000 , 0.279923, 0.000000
38.000000 , 0.269580, -0.031804
39.000000 , 0.240401, -0.070057
40.000000 , 0.197477, -0.119354
41.000000 , 0.147935, -0.180957
42.000000 , 0.099312, -0.251638
43.000000 , 0.057658, -0.322338
44.000000 , 0.025426, -0.377423
45.000000 , 0.000000, -0.398752
46.000000 , 0.276545, 0.000000
47.000000 , 0.270130, -0.051218
48.000000 , 0.251671, -0.104774
49.000000 , 0.223244, -0.162053
50.000000 , 0.187429, -0.222641
51.000000 , 0.146296, -0.283553
52.000000 , 0.100852, -0.338540
53.000000 , 0.051641, -0.378227
54.000000 , 0.000000, -0.392912
Stress
Element, Gauss Node, Global Node, Stress-x, Stress-y, Stress-xy
1 ,1, 1, -8.155631, 847.927260, -217.153139
1 ,2, 2, -41.374963, 893.167326, 2.839100
1 ,3, 11, -52.460980, 558.676912, -202.427068
1 ,4, 10, -87.762443, 606.752549, 31.353912
2 ,1, 2, 105.389783, 599.378257, -349.554770
2 ,2, 3, 22.096136, 718.303725, -174.531342
2 ,3, 12, 54.064369, 348.796130, -299.315919
2 ,4, 11, -34.449984, 475.175645, -113.322320
3 ,1, 3, 211.853893, 241.520905, -318.115818
3 ,2, 4, 120.168706, 390.965828, -211.884220
3 ,3, 13, 154.519666, 59.536230, -254.998692
3 ,4, 12, 57.087806, 218.348108, -142.108678
4 ,1, 4, 191.236650, -89.334374, -118.723613
4 ,2, 5, 137.461887, 41.320262, -71.412215
4 ,3, 14, 144.676450, -193.823360, -69.384548
4 ,4, 13, 87.531176, -54.979512, -19.107752
5 ,1, 5, -47.109746, -271.282939, 161.486516
5 ,2, 6, -39.446400, -190.742474, 187.474111
5 ,3, 15, -55.895118, -310.997010, 180.754264
5 ,4, 14, -47.751446, -225.408404, 208.370717
6 ,1, 6, -486.153417, -251.336496, 373.454571
6 ,2, 7, -453.863145, -161.526320, 408.508053
6 ,3, 16, -471.155950, -276.779307, 388.206334
6 ,4, 15, -436.841779, -181.339981, 425.456909
7 ,1, 7, -1125.619535, -262.765332, 537.436832
7 ,2, 8, -1114.488709, -386.001549, 563.411592
7 ,3, 17, -1067.718225, -229.283716, 499.596332
7 ,4, 16, -1055.889738, -360.244171, 527.199146
8 ,1, 8, -2225.299485, -882.387492, 531.908977
8 ,2, 9, -2278.084876, -2064.099495, 1031.113669
8 ,3, 18, -1501.336495, -673.292594, 205.174866
8 ,4, 17, -1557.430385, -1929.072307, 735.668864
9 ,1, 10, -114.060855, 331.696964, -204.704668
9 ,2, 11, -136.004262, 377.099278, 9.019118
9 ,3, 20, -161.984430, 17.139795, -191.400311
9 ,4, 19, -185.470711, 65.734413, 37.350708
10 ,1, 11, 19.821415, 115.241914, -323.320354
10 ,2, 12, -31.493387, 236.299865, -147.940195
10 ,3, 21, -31.971496, -159.465616, -276.201941
10 ,4, 20, -86.894317, -29.895903, -88.490547
11 ,1, 12, 182.369128, -184.300614, -283.043483
11 ,2, 13, 137.896646, -25.629421, -164.417187
11 ,3, 22, 131.505201, -388.985701, -224.417911
11 ,4, 21, 83.905794, -219.158105, -97.450826
12 ,1, 13, 254.351743, -438.686973, -73.018605
12 ,2, 14, 253.967182, -284.349494, 0.379754
12 ,3, 23, 224.301007, -564.932959, -27.771153
12 ,4, 22, 223.889406, -399.743786, 50.787952
13 ,1, 14, 130.740438, -529.763704, 233.188448
13 ,2, 15, 187.185636, -397.130629, 296.856812
13 ,3, 24, 147.256834, -594.650652, 254.501410
13 ,4, 23, 207.670776, -452.691951, 322.646390
14 ,1, 15, -235.174331, -453.534081, 527.644999
14 ,2, 16, -134.816766, -367.408125, 615.286390
14 ,3, 25, -138.842708, -465.069297, 520.164613
14 ,4, 24, -31.428855, -372.887698, 613.968198
15 ,1, 16, -759.562481, -447.102862, 733.371698
15 ,2, 17, -663.674055, -717.868189, 891.411675
15 ,3, 26, -470.120441, -340.184716, 614.475328
15 ,4, 25, -367.489959, -629.987949, 783.627327
16 ,1, 17, -1007.226311, -777.778328, 438.249906
16 ,2, 18, -1023.462945, -1322.394685, 703.982052
16 ,3, 27, -581.258189, -661.808131, 265.574652
16 ,4, 26, -598.636444, -1244.717261, 549.990815
17 ,1, 19, -210.560852, -236.177770, -187.959549
17 ,2, 20, -227.755944, -187.715635, 36.311097
17 ,3, 29, -267.590707, -611.597345, -173.826793
17 ,4, 28, -286.162466, -559.255253, 68.399322
18 ,1, 20, -67.234270, -400.688482, -272.089179
18 ,2, 21, -104.061993, -270.551277, -85.079393
18 ,3, 30, -126.381304, -729.819309, -220.805848
18 ,4, 29, -166.157514, -589.263111, -18.823757
19 ,1, 21, 131.322681, -608.899626, -219.557770
19 ,2, 22, 111.780186, -435.213295, -86.489416
19 ,3, 31, 78.858229, -856.452504, -156.870568
19 ,4, 30, 57.751130, -668.860566, -13.148548
20 ,1, 22, 282.561586, -757.613938, -16.386106
20 ,2, 23, 318.817802, -581.117700, 77.727911
20 ,3, 32, 264.375098, -913.921989, 29.209099
20 ,4, 31, 303.534045, -723.295178, 130.858035
21 ,1, 23, 285.524839, -759.643943, 288.358580
21 ,2, 24, 393.858884, -609.370253, 381.632221
21 ,3, 33, 344.592983, -833.579113, 299.386971
21 ,4, 32, 461.600426, -671.274270, 400.128250
22 ,1, 24, 96.992268, -621.818246, 590.178748
22 ,2, 25, 252.398460, -571.261264, 716.752676
22 ,3, 34, 288.368069, -604.454756, 548.206333
22 ,4, 33, 456.216331, -549.850100, 684.913974
23 ,1, 25, -143.884737, -473.553131, 690.205100
23 ,2, 26, -31.765462, -651.162810, 863.445906
23 ,3, 35, 187.431390, -374.552966, 581.289306
23 ,4, 34, 308.527115, -566.382362, 768.400050
24 ,1, 26, -242.418006, -501.651181, 299.753303
24 ,2, 27, -224.535860, -725.884419, 517.454600
24 ,3, 36, 135.978371, -420.074834, 205.817078
24 ,4, 35, 155.292191, -662.260546, 440.947890
25 ,1, 28, -255.244806, -923.579723, -154.680499
25 ,2, 29, -281.631705, -866.553506, 113.033470
25 ,3, 38, -334.552996, -1444.375822, -133.035434
25 ,4, 37, -363.392589, -1382.048948, 159.562877
26 ,1, 29, -132.791859, -990.635046, -149.396613
26 ,2, 30, -193.290416, -838.583624, 70.556099
26 ,3, 39, -217.727154, -1444.988348, -72.759314
26 ,4, 38, -283.849127, -1278.803559, 167.638272
27 ,1, 30, 44.706559, -1028.815110, -70.352755
27 ,2, 31, -1.635195, -830.134735, 79.216820
27 ,3, 40, -35.419441, -1364.818433, 22.825569
27 ,4, 39, -86.068717, -1147.670472, 186.297820
28 ,1, 31, 226.712971, -995.477613, 85.058027
28 ,2, 32, 250.509563, -806.039338, 181.880172
28 ,3, 41, 194.032374, -1194.124150, 148.248558
28 ,4, 40, 220.040889, -987.077354, 254.070440
29 ,1, 32, 363.252444, -861.492226, 294.487059
29 ,2, 33, 486.134803, -728.664395, 389.850908
29 ,3, 42, 450.662727, -930.428043, 294.119238
29 ,4, 41, 584.967152, -785.253702, 398.347273
30 ,1, 33, 428.155037, -624.100396, 484.105138
30 ,2, 34, 611.522853, -592.684145, 630.336103
30 ,3, 43, 698.837377, -585.388416, 415.213108
30 ,4, 42, 899.249457, -551.051986, 575.036421
31 ,1, 34, 452.925535, -341.383224, 490.587785
31 ,2, 35, 598.892692, -428.275230, 704.133748
31 ,3, 44, 888.539779, -244.013709, 385.503908
31 ,4, 43, 1048.074763, -338.982433, 618.899230
32 ,1, 35, 481.707121, -175.183082, 147.606807
32 ,2, 36, 529.427206, -258.283394, 409.424298
32 ,3, 45, 991.534414, -87.248551, 81.978192
32 ,4, 44, 1043.690139, -178.073140, 368.131941
33 ,1, 37, -110.146204, -1892.223464, -71.075735
33 ,2, 38, -177.665173, -1814.949519, 311.364961
33 ,3, 47, -246.824889, -2782.028037, -21.735948
33 ,4, 46, -321.824123, -2696.193096, 403.074442
34 ,1, 38, -89.618250, -1752.405839, 169.379976
34 ,2, 39, -261.626584, -1551.160105, 468.135785
34 ,3, 48, -253.100450, -2518.626859, 334.632516
34 ,4, 47, -444.165178, -2295.085589, 666.486769
35 ,1, 39, -88.534384, -1428.311606, 325.503903
35 ,2, 40, -285.314716, -1182.338069, 495.288259
35 ,3, 49, -279.153508, -1974.245660, 531.752098
35 ,4, 48, -497.734664, -1701.021301, 720.346458
36 ,1, 40, -30.871836, -1005.851311, 349.864400
36 ,2, 41, -154.453324, -812.642880, 407.606927
36 ,3, 50, -187.370532, -1292.397376, 500.965453
36 ,4, 49, -324.643319, -1077.783843, 565.105137
37 ,1, 41, 173.504245, -588.605469, 255.381280
37 ,2, 42, 196.503196, -529.064768, 282.848366
37 ,3, 51, 182.431942, -635.215798, 271.658251
37 ,4, 50, 207.978893, -569.078725, 302.168350
38 ,1, 42, 569.146267, -252.301104, 101.192762
38 ,2, 43, 736.691953, -352.161825, 220.614478
38 ,3, 52, 910.160142, -129.142667, -35.668747
38 ,4, 51, 1096.267815, -240.066720, 96.983417
39 ,1, 43, 1082.675378, -35.198237, -58.239147
39 ,2, 44, 1289.216600, -218.889674, 248.972748
39 ,3, 53, 1850.027561, 155.232657, -265.328348
39 ,4, 52, 2079.450992, -48.809516, 75.918821
40 ,1, 44, 1502.079707, 26.437497, -197.655730
40 ,2, 45, 1595.228360, -70.506658, 272.984881
40 ,3, 54, 2588.197621, 206.141136, -316.315269
40 ,4, 53, 2691.665991, 98.456769, 206.466494